(set-logic ALL)
(set-option :produce-models true)
(declare-sort BoundSet 0)
(declare-sort UnboundSet 0)
(set-option :finite-model-find true)
(declare-fun IsReal (BoundSet) Bool)
(declare-fun IsFollows (BoundSet BoundSet) Bool)
(assert (not (=> (exists ((a BoundSet)) (IsReal a)) (exists ((c BoundSet)) (exists ((b BoundSet)) (IsFollows b c))))))
(check-sat)
(get-model)